#################################
#two psrts have to be corrected
#Vacancy >> type : Fe Fe Fe Fe Fe Fe Fe Fe Fe
#Cu      >> type : Fe Fe Fe Fe Fe Fe Fe Fe Fe Cu
#################################
units       metal 
atom_style  atomic
boundary p p p

read_data ./Fe.lat
#timestep 0.1
timestep 0.001
pair_style  eam/alloy
pair_coeff  * * ./FeCuNi.eam.alloy Fe Fe Fe Fe Fe Fe Fe Fe Fe
#pair_coeff  * * ./new_potential/FeCuNi.eam.alloy Fe Fe Fe Fe Cu
#mass        *4 ${mass}
#pair_style  aenet
#pair_coeff  * * v03 Fe 10sw-10sw.nn Fe Fe Fe Fe Fe
#pair_coeff  * * ./new_potential/FeCuNi.eam.alloy Fe Fe Fe Fe Cu
#mass        *4 ${mass}
mass        * 55.845
#mass        5 58.454 correct value!!!
fix		mm all box/relax iso 0.0 vmax 0.01
minimize 1.0e-30 1.0e-30 10000 10000

# ------------------------- SETTINGS ---------------------------------
######################################
# EQUILIBRATION
reset_timestep	0
timestep 0.001

# Set thermo output
thermo 1000
thermo_style custom step lx ly lz press pxx pyy pzz pe temp
#write_data aftermm.lat
# Run for at least 10 picosecond (assuming 1 fs timestep)
#unfix 1
unfix 		mm

# Store final cell length for strain calculations
variable tmp equal "lx"
variable L0 equal ${tmp}
print "Initial Length, L0: ${L0}"

group dcr type 1
group source type 2
group detector type 3
group edge type 5
group edge_buf type 7
group buffer type 7 8 9
######################################
# DEFORMATION
reset_timestep	0

fix 1 all nve
variable srate equal 1.0e10
variable srate1 equal "v_srate / 1.0e12"

variable strain equal "ln(lx/v_L0)"
variable p1 equal "v_strain"
variable p2 equal "-pxx/10000"
variable p3 equal "-pyy/10000"
variable p4 equal "-pzz/10000"

#per atom calculation of stress
compute 	peratomp dcr stress/atom NULL
compute		dcrp dcr reduce sum c_peratomp[1] c_peratomp[2] c_peratomp[3]
variable 	dcrpxx equal c_dcrp[1]/vol
variable 	dcrpyy equal c_dcrp[2]/vol
variable 	dcrpzz equal c_dcrp[3]/vol

#per atom calculation of strain
#compute 	peratomx dcr property/atom x 
#variable	peratomxt atom c_peratomx
#variable	peratomstr atom "ln(v_peratomxt/v_peratomx0)"
#compute		dcrstr dcr reduce ave v_peratomstr
#variable 	dcrstrain equal c_dcrstr
#compute 	dcrxt dcr reduce 
fix		2 all deform 1 x trate ${srate1} units box remap x

# Output strain and stress info to file
# for units metal, pressure is in [bars] = 100 [kPa] = 1/10000 [GPa]
# p2, p3, p4 are in GPa
fix ssall all print 1 "${p1} ${p2} ${p3} ${p4}" file sscurve.txt screen no

fix ssdcr dcr print 1 "${p1} ${dcrpxx} ${dcrpyy} ${dcrpzz}" file sstest.txt screen no 

#compute 	dcrpress dcr pressure	#compute pressure should be performed on "all" group ID.

# Use cfg for AtomEye
#dump 		1 all cfg 250 dump.tensile_*.cfg mass type xs ys zs c_csym c_peratom fx fy fz
#dump_modify 1 element Al
dump fuck all atom 10 tensile.dump 

dump_modify fuck scale no

# Display thermo
thermo 	1000
thermo_style	custom step v_strain temp v_p2 v_p3 v_p4 ke pe press

run	500	

######################################
# SIMULATION DONE
print "All done"
